% Logging successfully configured
=====UNKNOWN=====
% time elapsed: 300.04 s
%%%mzn-stat: initTime=0.035045949
%%%mzn-stat: nodes=315227
%%%mzn-stat: restarts=0
%%%mzn-stat: peakDepth=91
%%%mzn-stat: solveTime=297.269776208
%%%mzn-stat: variables=2650
%%%mzn-stat: propagators=12931
%%%mzn-stat: failures=243521
%%%mzn-stat: propagations=526449325
%%%mzn-stat: nogoods=243521
%%%mzn-stat: numAtomicConstraintsPropagated=0
%%%mzn-stat: circuitNumber11176PropagationsThatFoundConflict=1697
%%%mzn-stat: circuitNumber11176TotalFixedEdgesAtConflict=210982
%%%mzn-stat: circuitNumber11176NumberOfConflicts=1697
%%%mzn-stat: circuitNumber11176PropagationsThatPruned=42670
%%%mzn-stat: circuitNumber11176PropagationsTotal=324443
%%%mzn-stat: AverageConflictSize=18.801417536885936
%%%mzn-stat: NumUnitNogoodsLearned=0
%%%mzn-stat: AverageLearnedNogoodLength=78.39383461795903
%%%mzn-stat: AverageBacktrackAmount=0
%%%mzn-stat: AverageLbd=40.07375133972019
%%%mzn-stat: 2AutonomousSearchNumBackupCalled=0
%%%mzn-stat: 2AutonomousSearchNumPredicatesRemoved=0
%%%mzn-stat: 2AutonomousSearchNumCalls=0
%%%mzn-stat: 2AutonomousSearchNumPredicatesAdded=8523
%%%mzn-stat: 2AutonomousSearchAverageSizeOfHeap=0
%%%mzn-stat: 2AutonomousSearchNumAssignedPredicatesEncountered=0
%%%mzn-stat-end
